c   #vars: 78   #clauses: 354   #literals: 994
c 
p cnf 78 354
-1 -2 0
-3 -4 0
-5 -6 0
-7 -8 0
42 43 67 68 0
10 36 37 -58 0
16 -58 67 68 0
-11 -12 0
9 27 28 -34 0
-14 -15 0
1 2 31 -66 0
-17 -18 0
-19 -20 0
-21 -22 0
-23 -24 0
-25 -26 0
10 31 -36 -66 0
44 45 67 68 0
-27 -28 0
5 6 77 78 0
-29 -30 0
7 8 -11 38 0
-32 -33 0
-34 -35 0
-36 -37 0
5 6 39 -70 0
42 43 -52 54 0
-40 -41 0
-42 -43 0
-44 -45 0
-46 -47 0
-48 -49 0
-50 -51 0
46 47 55 56 0
13 -44 58 59 0
-52 -53 0
-35 46 47 57 0
-55 -56 0
29 30 -39 69 0
19 20 46 47 0
-58 -59 0
-61 -62 0
-63 -64 0
-65 -66 0
-67 -68 0
40 41 -48 76 0
-70 -71 0
3 4 72 73 0
-72 -73 0
1 2 70 71 0
-74 -75 0
14 15 44 45 0
-77 -78 0
-1 -27 0
-2 -28 0
27 28 -36 60 0
-1 -31 0
-3 7 8 38 0
-1 -48 0
-2 -49 0
-1 -50 0
-2 -51 0
23 24 67 68 0
-1 -55 0
-2 -56 0
14 15 70 71 0
-1 -67 0
-2 -68 0
48 49 74 75 0
-1 -70 0
-2 -71 0
14 15 74 75 0
5 6 39 -69 0
-4 -38 0
50 51 55 56 0
-3 -44 0
-4 -45 0
5 6 36 37 0
-3 -65 0
-4 -66 0
-21 36 37 60 0
-3 -69 0
-29 40 41 76 0
3 4 44 45 0
-3 -72 0
-4 -73 0
7 8 55 56 0
9 -27 34 35 0
-5 -36 0
-6 -37 0
23 24 58 59 0
-25 42 43 54 0
-6 -39 0
-5 -55 0
-6 -56 0
7 8 50 51 0
-5 -77 0
-6 -78 0
23 24 63 64 0
-29 48 49 76 0
-8 -38 0
-5 39 70 71 0
-7 -40 0
-8 -41 0
-7 -50 0
-8 -51 0
-21 27 28 60 0
-7 -55 0
-8 -56 0
1 2 27 28 0
-7 -61 0
-8 -62 0
13 -35 -44 57 0
21 22 -36 60 0
11 12 55 56 0
21 22 -27 60 0
19 20 74 75 0
10 -31 36 37 0
-9 -28 0
13 44 45 -57 0
-3 11 12 38 0
-9 -35 0
-42 52 53 54 0
-7 11 12 38 0
-9 -64 0
-25 53 54 0
16 -42 68 0
3 4 -11 38 0
19 20 67 68 0
16 43 -67 0
-10 -37 0
16 42 43 -58 0
-10 -59 0
-40 48 49 76 0
-12 -38 0
21 22 29 30 0
-11 -55 0
-12 -56 0
-11 -63 0
-12 -64 0
-11 -74 0
-12 -75 0
23 24 36 37 0
-11 -77 0
-12 -78 0
9 -34 63 64 0
-13 -45 0
29 30 55 56 0
46 47 72 73 0
-4 -5 39 69 0
13 -47 57 -58 0
9 -27 63 64 0
-4 29 30 69 0
1 2 48 49 0
9 34 35 -63 0
-13 -59 0
27 28 72 73 0
-14 -40 0
-15 -41 0
-14 -44 0
-15 -45 0
-14 -46 0
-15 -47 0
17 18 27 28 0
-14 -52 0
-15 -53 0
10 -31 58 59 0
-14 -70 0
-15 -71 0
-4 39 69 -70 0
-14 -74 0
-15 -75 0
10 31 -58 -66 0
1 2 -10 31 0
-16 -43 0
19 20 65 66 0
-10 31 65 66 0
-16 -59 0
23 24 32 33 0
-2 31 65 66 0
-16 -68 0
42 43 55 56 0
-17 -27 0
-18 -28 0
48 49 58 59 0
-17 -32 0
-18 -33 0
25 26 52 53 0
-17 -42 0
-18 -43 0
25 26 46 47 0
-17 -74 0
-18 -75 0
14 15 40 41 0
-19 -32 0
-20 -33 0
42 43 63 64 0
-19 -40 0
-20 -41 0
52 53 70 71 0
-19 -46 0
-20 -47 0
19 20 32 33 0
-5 -30 39 69 0
-19 -61 0
-20 -62 0
-19 -65 0
-20 -66 0
34 35 70 71 0
-19 -67 0
-20 -68 0
1 2 67 68 0
-19 -74 0
-20 -75 0
13 -35 57 -58 0
-21 -29 0
-22 -30 0
11 12 74 75 0
-21 -46 0
-22 -47 0
32 33 58 59 0
-21 -52 0
-22 -53 0
21 22 52 53 0
-22 -60 0
17 18 32 33 0
-23 -27 0
-24 -28 0
40 41 77 78 0
-23 -32 0
-24 -33 0
16 -42 58 59 0
-23 -36 0
-24 -37 0
14 15 46 47 0
-23 -58 0
-24 -59 0
3 4 65 66 0
-23 -63 0
-24 -64 0
25 26 70 71 0
-23 -67 0
-24 -68 0
1 2 50 51 0
-23 -77 0
-24 -78 0
-30 39 69 -70 0
-25 -46 0
-26 -47 0
-25 -52 0
-26 -53 0
52 53 77 78 0
-13 46 47 57 0
-26 -54 0
17 18 74 75 0
-25 -70 0
-26 -71 0
50 51 61 62 0
-28 -60 0
-27 -72 0
-28 -73 0
39 -69 70 71 0
9 27 28 -63 0
11 12 63 64 0
-29 -55 0
-30 -56 0
34 35 63 64 0
-29 -61 0
-30 -62 0
17 18 42 43 0
-29 -69 0
29 30 -48 76 0
13 44 45 -58 0
-30 -76 0
1 2 55 56 0
-31 -65 0
3 4 -7 38 0
40 41 65 66 0
-32 -58 0
-33 -59 0
7 8 40 41 0
-32 -74 0
-33 -75 0
10 -36 58 59 0
-34 -57 0
3 4 -39 69 0
16 58 59 -67 0
-34 -63 0
-35 -64 0
-34 -70 0
-35 -71 0
23 24 77 78 0
-37 -60 0
26 -52 54 0
29 30 -40 76 0
-2 10 31 -58 0
25 26 -42 54 0
-39 -71 0
11 12 77 78 0
-40 -65 0
-41 -66 0
19 20 61 62 0
-41 -76 0
5 6 55 56 0
-40 -77 0
-41 -78 0
13 -44 -47 57 0
34 35 -47 57 0
-43 -54 0
48 49 72 73 0
-42 -55 0
-43 -56 0
-42 -63 0
-43 -64 0
-42 -67 0
-43 -68 0
-44 -67 0
-45 -68 0
14 15 52 53 0
-46 -55 0
-47 -56 0
13 -57 58 59 0
-46 -57 0
3 4 -30 69 0
-46 -72 0
-47 -73 0
29 30 61 62 0
-48 -58 0
-49 -59 0
21 22 46 47 0
-48 -72 0
-49 -73 0
7 8 61 62 0
-48 -74 0
-49 -75 0
23 24 27 28 0
-49 -76 0
-27 36 37 60 0
-50 -55 0
-51 -56 0
-50 -61 0
-51 -62 0
19 20 40 41 0
-13 34 35 57 0
-53 -54 0
52 53 58 59 0
-52 -58 0
-53 -59 0
32 33 74 75 0
-52 -70 0
-53 -71 0
-2 10 31 -36 0
-52 -77 0
-53 -78 0
